NAME /Users/henri/Research/solvers/instances/idol-instances/robust/collection/spp_dkp_Lefebvre_et_al_2026/shortest_path_3_6/uncertainty_sets/discrete_knapsack
ROWS
 N  OBJ
 L  primal_lower
COLUMNS
    MARKER    'MARKER'                 'INTORG'
    y[0,1]     OBJ        0
    y[0,1]     primal_lower -0.2
    y[0,2]     OBJ        0
    y[0,2]     primal_lower -9.96
    y[1,0]     OBJ        0
    y[1,0]     primal_lower -3.18
    y[1,2]     OBJ        0
    y[1,2]     primal_lower -3.34
    y[2,0]     OBJ        0
    y[2,0]     primal_lower -8.84
    y[2,1]     OBJ        0
    y[2,1]     primal_lower -3.62
    u[0,1]     OBJ        0
    u[0,1]     primal_lower 51
    u[0,2]     OBJ        0
    u[0,2]     primal_lower 25
    u[1,0]     OBJ        0
    u[1,0]     primal_lower 23
    u[1,2]     OBJ        0
    u[1,2]     primal_lower 10
    u[2,0]     OBJ        0
    u[2,0]     primal_lower 33
    u[2,1]     OBJ        0
    u[2,1]     primal_lower 67
    MARKER    'MARKER'                 'INTEND'
RHS
    RHS       primal_lower 67
BOUNDS
 LI BND       y[0,1]     0
 UI BND       y[0,1]     1
 LI BND       y[0,2]     0
 UI BND       y[0,2]     1
 LI BND       y[1,0]     0
 UI BND       y[1,0]     1
 LI BND       y[1,2]     0
 UI BND       y[1,2]     1
 LI BND       y[2,0]     0
 UI BND       y[2,0]     1
 LI BND       y[2,1]     0
 UI BND       y[2,1]     1
 LI BND       u[0,1]     0
 UI BND       u[0,1]     1
 LI BND       u[0,2]     0
 UI BND       u[0,2]     1
 LI BND       u[1,0]     0
 UI BND       u[1,0]     1
 LI BND       u[1,2]     0
 UI BND       u[1,2]     1
 LI BND       u[2,0]     0
 UI BND       u[2,0]     1
 LI BND       u[2,1]     0
 UI BND       u[2,1]     1
ENDATA
